networks/zoo_76_846/zoo_76_846-lower.txt
Number of groups: 40
Flow 21: {1 36 0} {36 6 0} {6 30 0} {30 68 0} 
Flow 28: {2 6 0} {6 44 0} 
Flow 49: {36 18 0} {18 56 0} 
Flow 61: {3 6 0} {6 33 0} {33 71 0} 
Flow 70: {4 36 0} 
Flow 78: {36 4 0} {4 42 0} 
Flow 93: {5 35 0} {35 73 0} 
Flow 122: {6 28 0} {28 66 0} 
Flow 137: {7 19 0} {19 11 0} {11 49 0} 
Flow 167: {8 35 0} {35 26 0} {26 64 0} 
Flow 189: {9 13 0} {13 21 0} {21 59 0} 
Flow 206: {10 6 0} {6 34 0} {34 72 0} 
Flow 210: {11 19 0} {19 15 0} {15 53 0} 
Flow 225: {12 19 0} {19 32 0} {32 70 0} 
Flow 233: {13 34 0} {34 35 0} {35 5 0} {5 43 0} 
Flow 244: {31 17 0} {17 55 0} 
Flow 291: {14 6 0} {6 27 0} {27 65 0} 
Flow 330: {15 19 0} {19 29 0} {29 67 0} 
Flow 344: {16 34 0} {34 19 0} {19 7 0} {7 45 0} 
Flow 387: {17 31 0} {31 24 0} {24 62 0} 
Flow 408: {18 36 0} {36 74 0} 
Flow 418: {6 10 0} {10 48 0} 
Flow 456: {20 19 0} {19 34 0} {34 6 0} {6 22 0} {22 60 0} 
Flow 468: {21 13 0} {13 6 0} {6 3 0} {3 41 0} 
Flow 494: {22 6 0} {6 36 0} {36 1 0} {1 39 0} 
Flow 522: {23 6 0} 
Flow 556: {24 31 0} {31 38 0} {38 76 0} 
Flow 561: {25 34 0} {34 13 0} {13 9 0} {9 47 0} 
Flow 594: {26 35 0} {35 34 0} {34 16 0} {16 54 0} 
Flow 611: {27 6 0} {6 14 0} {14 52 0} 
Flow 620: {28 6 0} {6 23 0} {23 61 0} 
Flow 630: {29 19 0} {19 12 0} {12 50 0} 
Flow 648: {30 6 0} {6 2 0} {2 40 0} 
Flow 664: {19 20 0} {20 58 0} 
Flow 719: {32 19 0} {19 31 0} {31 69 0} 
Flow 724: {33 6 0} {6 13 0} {13 51 0} 
Flow 758: {34 25 0} {25 63 0} 
Flow 806: {35 37 0} {37 75 0} 
Flow 823: {37 35 0} {35 8 0} {8 46 0} 
Flow 845: {38 31 0} {31 19 0} {19 57 0} 
Time taken running everything: 3 seconds
