networks/zoo_76_846/zoo_76_846-lower.sol
<?xml version = "1.0" encoding="UTF-8" standalone="yes"?>
<CPLEXSolution version="1.2">
 <header
   problemName="networks/zoo_76_846/zoo_76_846-lower.lp"
   solutionName="incumbent"
   solutionIndex="-1"
   objectiveValue="38"
   solutionTypeValue="3"
   solutionTypeString="primal"
   solutionStatusValue="101"
   solutionStatusString="integer optimal solution"
   solutionMethodString="mip"
   primalFeasible="1"
   dualFeasible="1"
   MIPNodes="0"
   MIPIterations="0"
   writeLevel="3"/>
 <quality
   epInt="1.0000000000000001e-05"
   epRHS="9.9999999999999995e-07"
   maxIntInfeas="0"
   maxPrimalInfeas="0"
   maxX="1"
   maxSlack="1"/>
 <variables>
  <variable name="Y(1,3)" index="2" value="1"/>
  <variable name="Y(2,4)" index="79" value="1"/>
  <variable name="Y(3,6)" index="157" value="1"/>
  <variable name="Y(4,7)" index="234" value="1"/>
  <variable name="Y(5,8)" index="311" value="1"/>
  <variable name="Y(6,9)" index="388" value="1"/>
  <variable name="Y(7,11)" index="466" value="1"/>
  <variable name="Y(8,12)" index="543" value="1"/>
  <variable name="Y(9,13)" index="620" value="1"/>
  <variable name="Y(10,14)" index="697" value="1"/>
  <variable name="Y(11,15)" index="774" value="1"/>
  <variable name="Y(12,16)" index="851" value="1"/>
  <variable name="Y(13,18)" index="929" value="1"/>
  <variable name="Y(14,19)" index="1006" value="1"/>
  <variable name="Y(15,21)" index="1084" value="1"/>
  <variable name="Y(16,22)" index="1161" value="1"/>
  <variable name="Y(17,23)" index="1238" value="1"/>
  <variable name="Y(18,24)" index="1315" value="1"/>
  <variable name="Y(19,26)" index="1393" value="1"/>
  <variable name="Y(20,29)" index="1472" value="1"/>
  <variable name="Y(21,30)" index="1549" value="1"/>
  <variable name="Y(22,31)" index="1626" value="1"/>
  <variable name="Y(23,32)" index="1703" value="1"/>
  <variable name="Y(24,34)" index="1781" value="1"/>
  <variable name="Y(25,35)" index="1858" value="1"/>
  <variable name="Y(26,36)" index="1935" value="1"/>
  <variable name="Y(27,38)" index="2013" value="1"/>
  <variable name="Y(37,1)" index="2736" value="1"/>
  <variable name="Y(56,28)" index="4207" value="1"/>
  <variable name="Y(61,33)" index="4592" value="1"/>
  <variable name="Y(97,2)" index="7297" value="1"/>
  <variable name="Y(100,5)" index="7528" value="1"/>
  <variable name="Y(104,10)" index="7837" value="1"/>
  <variable name="Y(111,17)" index="8376" value="1"/>
  <variable name="Y(114,20)" index="8607" value="1"/>
  <variable name="Y(119,25)" index="8992" value="1"/>
  <variable name="Y(121,27)" index="9146" value="1"/>
  <variable name="Y(131,37)" index="9916" value="1"/>
  <variable name="X(1,36,1)" index="64296" value="1"/>
  <variable name="X(1,39,37)" index="65178" value="1"/>
  <variable name="X(2,6,28)" index="66015" value="1"/>
  <variable name="X(2,40,97)" index="66930" value="1"/>
  <variable name="X(3,6,37)" index="67716" value="1"/>
  <variable name="X(3,41,1)" index="68526" value="1"/>
  <variable name="X(4,36,66)" index="69437" value="1"/>
  <variable name="X(4,42,2)" index="70219" value="1"/>
  <variable name="X(5,35,77)" index="71140" value="1"/>
  <variable name="X(5,43,100)" index="72009" value="1"/>
  <variable name="X(6,2,97)" index="72852" value="1"/>
  <variable name="X(6,3,1)" index="73602" value="1"/>
  <variable name="X(6,10,104)" index="74551" value="1"/>
  <variable name="X(6,13,6)" index="75299" value="1"/>
  <variable name="X(6,14,10)" index="76149" value="1"/>
  <variable name="X(6,22,16)" index="77001" value="1"/>
  <variable name="X(6,23,17)" index="77848" value="1"/>
  <variable name="X(6,27,121)" index="78798" value="1"/>
  <variable name="X(6,28,56)" index="79579" value="1"/>
  <variable name="X(6,30,21)" index="80390" value="1"/>
  <variable name="X(6,33,61)" index="81276" value="1"/>
  <variable name="X(6,34,4)" index="82065" value="1"/>
  <variable name="X(6,36,36)" index="82943" value="1"/>
  <variable name="X(6,44,3)" index="83756" value="1"/>
  <variable name="X(7,19,133)" index="84732" value="1"/>
  <variable name="X(7,45,4)" index="85449" value="1"/>
  <variable name="X(8,35,152)" index="86443" value="1"/>
  <variable name="X(8,46,5)" index="87142" value="1"/>
  <variable name="X(9,13,176)" index="88159" value="1"/>
  <variable name="X(9,47,6)" index="88835" value="1"/>
  <variable name="X(10,6,202)" index="89877" value="1"/>
  <variable name="X(10,48,104)" index="90625" value="1"/>
  <variable name="X(11,19,207)" index="91574" value="1"/>
  <variable name="X(11,49,7)" index="92220" value="1"/>
  <variable name="X(12,19,216)" index="93275" value="1"/>
  <variable name="X(12,50,8)" index="93913" value="1"/>
  <variable name="X(13,6,176)" index="94927" value="1"/>
  <variable name="X(13,9,6)" index="95603" value="1"/>
  <variable name="X(13,21,15)" index="96458" value="1"/>
  <variable name="X(13,34,180)" index="97469" value="1"/>
  <variable name="X(13,51,9)" index="98144" value="1"/>
  <variable name="X(14,6,266)" index="99247" value="1"/>
  <variable name="X(14,52,10)" index="99837" value="1"/>
  <variable name="X(15,19,303)" index="100976" value="1"/>
  <variable name="X(15,53,11)" index="101530" value="1"/>
  <variable name="X(16,34,340)" index="102705" value="1"/>
  <variable name="X(16,54,12)" index="103223" value="1"/>
  <variable name="X(17,31,369)" index="104426" value="1"/>
  <variable name="X(17,55,111)" index="105014" value="1"/>
  <variable name="X(18,36,398)" index="106147" value="1"/>
  <variable name="X(18,56,13)" index="106608" value="1"/>
  <variable name="X(19,7,4)" index="107445" value="1"/>
  <variable name="X(19,11,7)" index="108294" value="1"/>
  <variable name="X(19,12,8)" index="109141" value="1"/>
  <variable name="X(19,15,11)" index="109990" value="1"/>
  <variable name="X(19,20,114)" index="110939" value="1"/>
  <variable name="X(19,29,20)" index="111691" value="1"/>
  <variable name="X(19,31,18)" index="112535" value="1"/>
  <variable name="X(19,32,23)" index="113386" value="1"/>
  <variable name="X(19,34,133)" index="114342" value="1"/>
  <variable name="X(19,57,14)" index="115069" value="1"/>
  <variable name="X(20,19,446)" index="116347" value="1"/>
  <variable name="X(20,58,114)" index="116861" value="1"/>
  <variable name="X(21,13,467)" index="118060" value="1"/>
  <variable name="X(21,59,15)" index="118454" value="1"/>
  <variable name="X(22,6,494)" index="119779" value="1"/>
  <variable name="X(22,60,16)" index="120147" value="1"/>
  <variable name="X(23,6,518)" index="121495" value="1"/>
  <variable name="X(23,61,17)" index="121840" value="1"/>
  <variable name="X(24,31,528)" index="123197" value="1"/>
  <variable name="X(24,62,18)" index="123533" value="1"/>
  <variable name="X(25,34,557)" index="124918" value="1"/>
  <variable name="X(25,63,119)" index="125326" value="1"/>
  <variable name="X(26,35,582)" index="126635" value="1"/>
  <variable name="X(26,64,19)" index="126918" value="1"/>
  <variable name="X(27,6,610)" index="128355" value="1"/>
  <variable name="X(27,65,121)" index="128712" value="1"/>
  <variable name="X(28,6,615)" index="130052" value="1"/>
  <variable name="X(28,66,56)" index="130339" value="1"/>
  <variable name="X(29,19,624)" index="131753" value="1"/>
  <variable name="X(29,67,20)" index="131995" value="1"/>
  <variable name="X(30,6,647)" index="133468" value="1"/>
  <variable name="X(30,68,21)" index="133688" value="1"/>
  <variable name="X(31,17,111)" index="134624" value="1"/>
  <variable name="X(31,19,369)" index="135728" value="1"/>
  <variable name="X(31,24,18)" index="136223" value="1"/>
  <variable name="X(31,38,27)" index="137078" value="1"/>
  <variable name="X(31,69,22)" index="137919" value="1"/>
  <variable name="X(32,19,711)" index="139454" value="1"/>
  <variable name="X(32,70,23)" index="139612" value="1"/>
  <variable name="X(33,6,723)" index="141158" value="1"/>
  <variable name="X(33,71,61)" index="141342" value="1"/>
  <variable name="X(34,6,77)" index="142204" value="1"/>
  <variable name="X(34,13,82)" index="143055" value="1"/>
  <variable name="X(34,16,12)" index="143831" value="1"/>
  <variable name="X(34,19,4)" index="144669" value="1"/>
  <variable name="X(34,25,119)" index="145630" value="1"/>
  <variable name="X(34,35,5)" index="146362" value="1"/>
  <variable name="X(34,72,24)" index="147227" value="1"/>
  <variable name="X(35,5,100)" index="148149" value="1"/>
  <variable name="X(35,8,5)" index="148900" value="1"/>
  <variable name="X(35,26,19)" index="149760" value="1"/>
  <variable name="X(35,34,77)" index="150664" value="1"/>
  <variable name="X(35,37,131)" index="151564" value="1"/>
  <variable name="X(35,73,25)" index="152304" value="1"/>
  <variable name="X(36,1,37)" index="153162" value="1"/>
  <variable name="X(36,4,2)" index="153973" value="1"/>
  <variable name="X(36,6,1)" index="154818" value="1"/>
  <variable name="X(36,18,13)" index="155676" value="1"/>
  <variable name="X(36,74,26)" index="156535" value="1"/>
  <variable name="X(37,35,820)" index="158175" value="1"/>
  <variable name="X(37,75,131)" index="158332" value="1"/>
  <variable name="X(38,31,845)" index="159892" value="1"/>
  <variable name="X(38,76,27)" index="159920" value="1"/>
 </variables>
</CPLEXSolution>
